33D32945 STP File, STP Format Version 1.0

SECTION Comment
Name "i640-201-PCST"
Creator "Indaco Biazzo" 
Remark "derived from Incidence graph by Cees Duin"
END

SECTION Graph
Nodes 640
Edges 960
E 1 24 297.000000
E 1 48 309.000000
E 1 136 195.000000
E 1 202 206.000000
E 1 383 205.000000
E 1 418 203.000000
E 1 517 195.000000
E 2 613 206.000000
E 3 543 208.000000
E 3 627 201.000000
E 4 308 196.000000
E 4 445 194.000000
E 5 397 192.000000
E 5 597 200.000000
E 6 166 197.000000
E 6 177 195.000000
E 6 181 199.000000
E 6 362 210.000000
E 6 445 196.000000
E 7 23 301.000000
E 7 99 195.000000
E 7 536 190.000000
E 7 567 193.000000
E 8 105 208.000000
E 8 324 205.000000
E 8 336 198.000000
E 8 480 201.000000
E 8 488 201.000000
E 9 306 202.000000
E 9 369 194.000000
E 9 481 200.000000
E 9 497 194.000000
E 9 558 198.000000
E 10 56 203.000000
E 10 148 201.000000
E 10 228 201.000000
E 10 253 195.000000
E 10 276 208.000000
E 10 364 192.000000
E 10 614 195.000000
E 10 618 203.000000
E 11 22 294.000000
E 11 56 188.000000
E 11 128 200.000000
E 11 129 201.000000
E 11 241 201.000000
E 11 300 207.000000
E 11 307 209.000000
E 11 455 203.000000
E 12 185 200.000000
E 12 313 195.000000
E 12 609 199.000000
E 13 357 201.000000
E 13 396 204.000000
E 14 161 204.000000
E 14 282 197.000000
E 15 563 201.000000
E 15 606 199.000000
E 16 84 211.000000
E 16 230 192.000000
E 16 374 194.000000
E 16 542 205.000000
E 17 102 200.000000
E 17 361 202.000000
E 17 567 198.000000
E 17 621 200.000000
E 18 166 195.000000
E 18 455 194.000000
E 18 528 202.000000
E 19 217 207.000000
E 20 141 201.000000
E 20 521 201.000000
E 21 73 198.000000
E 21 204 204.000000
E 21 213 191.000000
E 21 299 199.000000
E 22 42 290.000000
E 22 77 195.000000
E 22 409 192.000000
E 22 474 201.000000
E 23 260 203.000000
E 23 540 202.000000
E 24 70 204.000000
E 24 71 204.000000
E 25 219 198.000000
E 25 467 214.000000
E 26 365 205.000000
E 26 484 209.000000
E 27 241 206.000000
E 27 613 190.000000
E 28 45 288.000000
E 28 310 203.000000
E 29 293 195.000000
E 29 363 194.000000
E 29 423 210.000000
E 30 264 200.000000
E 30 429 201.000000
E 31 67 201.000000
E 31 134 191.000000
E 31 233 202.000000
E 31 254 200.000000
E 31 311 192.000000
E 31 586 195.000000
E 31 597 209.000000
E 32 129 194.000000
E 32 250 195.000000
E 33 91 197.000000
E 34 551 196.000000
E 35 63 192.000000
E 35 372 197.000000
E 35 531 197.000000
E 35 541 202.000000
E 35 619 196.000000
E 36 56 194.000000
E 36 71 211.000000
E 36 198 202.000000
E 36 428 197.000000
E 36 490 193.000000
E 36 620 196.000000
E 37 170 200.000000
E 37 400 205.000000
E 37 452 201.000000
E 37 618 204.000000
E 38 489 203.000000
E 38 496 191.000000
E 39 590 204.000000
E 40 306 204.000000
E 40 354 196.000000
E 41 219 201.000000
E 41 311 196.000000
E 41 380 200.000000
E 42 57 202.000000
E 42 316 203.000000
E 43 213 199.000000
E 43 242 196.000000
E 44 93 197.000000
E 46 52 203.000000
E 46 344 202.000000
E 46 390 196.000000
E 47 52 206.000000
E 47 409 204.000000
E 47 581 195.000000
E 48 160 203.000000
E 48 484 205.000000
E 49 545 207.000000
E 50 204 201.000000
E 50 208 209.000000
E 50 331 195.000000
E 50 527 205.000000
E 51 94 107.000000
E 51 609 104.000000
E 52 142 99.000000
E 52 257 103.000000
E 52 489 104.000000
E 52 509 107.000000
E 53 129 102.000000
E 53 145 98.000000
E 53 155 97.000000
E 53 270 98.000000
E 53 479 104.000000
E 54 233 102.000000
E 54 424 103.000000
E 54 533 99.000000
E 55 240 100.000000
E 55 314 101.000000
E 56 69 95.000000
E 56 70 105.000000
E 56 76 101.000000
E 56 97 97.000000
E 56 141 93.000000
E 56 159 95.000000
E 56 310 98.000000
E 56 347 95.000000
E 57 146 95.000000
E 57 364 98.000000
E 58 335 99.000000
E 58 567 107.000000
E 59 165 93.000000
E 60 558 98.000000
E 61 217 110.000000
E 61 228 98.000000
E 61 309 93.000000
E 62 80 99.000000
E 62 181 110.000000
E 62 334 109.000000
E 63 100 96.000000
E 63 373 92.000000
E 63 513 99.000000
E 63 558 105.000000
E 64 86 97.000000
E 64 333 94.000000
E 64 494 106.000000
E 65 469 92.000000
E 65 615 106.000000
E 66 621 100.000000
E 67 103 101.000000
E 67 341 97.000000
E 67 439 103.000000
E 68 628 102.000000
E 68 629 93.000000
E 69 430 101.000000
E 70 81 105.000000
E 70 106 104.000000
E 70 157 104.000000
E 70 242 85.000000
E 70 270 97.000000
E 70 340 102.000000
E 70 415 109.000000
E 70 418 107.000000
E 70 480 95.000000
E 70 583 101.000000
E 70 597 98.000000
E 71 307 104.000000
E 71 482 107.000000
E 71 539 100.000000
E 72 136 105.000000
E 72 139 99.000000
E 72 255 99.000000
E 72 422 90.000000
E 72 471 97.000000
E 73 132 97.000000
E 73 166 96.000000
E 73 279 99.000000
E 73 281 92.000000
E 73 283 94.000000
E 73 284 92.000000
E 73 447 103.000000
E 73 533 100.000000
E 74 125 98.000000
E 75 345 99.000000
E 75 571 97.000000
E 76 179 105.000000
E 76 484 101.000000
E 76 559 102.000000
E 77 296 104.000000
E 78 172 102.000000
E 78 231 100.000000
E 78 306 98.000000
E 78 539 98.000000
E 79 404 99.000000
E 80 81 106.000000
E 80 168 103.000000
E 80 531 100.000000
E 81 566 96.000000
E 82 357 98.000000
E 82 539 107.000000
E 83 166 101.000000
E 83 427 107.000000
E 83 538 104.000000
E 83 615 95.000000
E 83 630 103.000000
E 85 174 95.000000
E 85 270 101.000000
E 86 113 98.000000
E 87 362 105.000000
E 87 412 89.000000
E 87 473 106.000000
E 87 510 104.000000
E 88 213 100.000000
E 88 220 102.000000
E 89 372 96.000000
E 90 117 106.000000
E 90 218 94.000000
E 90 228 102.000000
E 90 342 106.000000
E 90 437 104.000000
E 91 128 104.000000
E 91 403 102.000000
E 91 493 89.000000
E 91 533 97.000000
E 92 167 102.000000
E 92 379 97.000000
E 92 434 98.000000
E 93 215 100.000000
E 93 218 92.000000
E 93 527 103.000000
E 93 627 95.000000
E 94 210 93.000000
E 94 300 109.000000
E 94 309 98.000000
E 94 587 105.000000
E 94 612 105.000000
E 95 151 106.000000
E 96 486 103.000000
E 96 607 103.000000
E 97 139 99.000000
E 97 184 102.000000
E 97 325 98.000000
E 97 366 96.000000
E 98 250 100.000000
E 98 314 97.000000
E 98 329 104.000000
E 98 338 95.000000
E 99 394 94.000000
E 99 532 97.000000
E 100 207 94.000000
E 100 360 94.000000
E 100 572 97.000000
E 100 597 98.000000
E 100 631 107.000000
E 101 288 101.000000
E 101 355 94.000000
E 104 164 100.000000
E 104 433 98.000000
E 105 428 106.000000
E 106 347 108.000000
E 106 397 88.000000
E 106 519 98.000000
E 107 114 97.000000
E 108 170 94.000000
E 109 412 90.000000
E 109 551 102.000000
E 109 587 100.000000
E 110 206 98.000000
E 110 221 101.000000
E 110 293 91.000000
E 110 491 101.000000
E 111 277 101.000000
E 111 398 101.000000
E 111 454 90.000000
E 111 541 98.000000
E 112 161 91.000000
E 112 375 94.000000
E 113 578 100.000000
E 114 284 100.000000
E 114 443 97.000000
E 114 501 97.000000
E 115 565 105.000000
E 115 613 96.000000
E 116 195 91.000000
E 116 506 101.000000
E 117 556 105.000000
E 118 208 101.000000
E 118 399 101.000000
E 118 500 97.000000
E 119 121 94.000000
E 119 364 111.000000
E 120 391 93.000000
E 120 496 91.000000
E 121 231 103.000000
E 121 403 98.000000
E 121 466 93.000000
E 121 502 99.000000
E 121 620 94.000000
E 122 417 101.000000
E 123 125 92.000000
E 124 152 99.000000
E 124 439 99.000000
E 125 237 107.000000
E 125 401 101.000000
E 125 463 105.000000
E 126 236 103.000000
E 126 259 106.000000
E 126 300 95.000000
E 126 501 105.000000
E 126 629 95.000000
E 127 605 98.000000
E 128 201 105.000000
E 128 224 97.000000
E 128 252 99.000000
E 128 445 107.000000
E 128 449 102.000000
E 128 611 100.000000
E 130 150 95.000000
E 130 375 98.000000
E 130 412 97.000000
E 130 600 101.000000
E 131 133 101.000000
E 131 547 105.000000
E 132 485 93.000000
E 133 301 104.000000
E 133 398 114.000000
E 133 478 93.000000
E 134 231 97.000000
E 134 553 102.000000
E 135 200 96.000000
E 135 302 96.000000
E 135 385 103.000000
E 135 475 95.000000
E 135 601 107.000000
E 136 180 92.000000
E 136 307 100.000000
E 136 456 92.000000
E 136 514 90.000000
E 137 222 95.000000
E 137 541 97.000000
E 138 247 101.000000
E 138 267 93.000000
E 138 400 94.000000
E 138 563 91.000000
E 139 450 98.000000
E 140 472 101.000000
E 141 268 100.000000
E 142 275 101.000000
E 142 386 102.000000
E 142 518 89.000000
E 142 583 106.000000
E 143 261 100.000000
E 143 436 102.000000
E 143 474 100.000000
E 144 585 97.000000
E 146 237 100.000000
E 146 243 99.000000
E 147 265 103.000000
E 147 526 98.000000
E 148 243 101.000000
E 148 343 99.000000
E 148 628 97.000000
E 149 176 89.000000
E 149 192 111.000000
E 149 418 102.000000
E 149 591 95.000000
E 150 258 101.000000
E 150 290 104.000000
E 150 335 104.000000
E 150 551 98.000000
E 151 172 93.000000
E 151 230 98.000000
E 151 289 103.000000
E 151 435 106.000000
E 151 485 96.000000
E 152 175 96.000000
E 152 207 102.000000
E 152 294 104.000000
E 152 411 97.000000
E 152 499 108.000000
E 153 252 107.000000
E 153 518 97.000000
E 154 246 109.000000
E 154 607 103.000000
E 155 219 104.000000
E 155 428 97.000000
E 156 221 96.000000
E 156 388 93.000000
E 156 421 100.000000
E 156 533 102.000000
E 157 200 98.000000
E 158 577 99.000000
E 159 417 105.000000
E 161 508 97.000000
E 162 168 101.000000
E 162 245 98.000000
E 162 317 104.000000
E 162 565 105.000000
E 163 229 102.000000
E 163 334 95.000000
E 163 484 94.000000
E 163 494 93.000000
E 163 600 98.000000
E 164 447 108.000000
E 165 228 91.000000
E 165 267 103.000000
E 165 270 99.000000
E 165 451 96.000000
E 165 465 97.000000
E 166 243 104.000000
E 166 602 95.000000
E 167 489 92.000000
E 168 366 102.000000
E 169 218 96.000000
E 169 278 94.000000
E 169 410 104.000000
E 170 196 100.000000
E 170 463 99.000000
E 170 526 95.000000
E 171 189 92.000000
E 171 530 97.000000
E 173 213 104.000000
E 173 262 95.000000
E 174 440 103.000000
E 174 570 95.000000
E 174 603 101.000000
E 174 624 93.000000
E 175 237 94.000000
E 176 392 98.000000
E 176 599 105.000000
E 177 608 106.000000
E 178 517 104.000000
E 178 616 91.000000
E 179 324 101.000000
E 179 579 93.000000
E 179 626 105.000000
E 181 623 96.000000
E 182 240 96.000000
E 182 403 101.000000
E 182 560 101.000000
E 183 363 96.000000
E 183 437 98.000000
E 183 601 105.000000
E 183 628 94.000000
E 184 303 99.000000
E 184 571 102.000000
E 185 218 105.000000
E 185 295 102.000000
E 185 507 96.000000
E 186 501 99.000000
E 186 604 106.000000
E 187 200 100.000000
E 187 231 97.000000
E 188 306 101.000000
E 189 232 95.000000
E 189 326 109.000000
E 189 482 101.000000
E 189 539 99.000000
E 189 542 95.000000
E 189 583 101.000000
E 190 342 101.000000
E 190 404 96.000000
E 190 470 101.000000
E 191 245 96.000000
E 191 382 96.000000
E 191 532 97.000000
E 192 239 99.000000
E 192 364 103.000000
E 192 518 100.000000
E 193 493 100.000000
E 194 441 101.000000
E 194 463 89.000000
E 195 201 95.000000
E 195 480 98.000000
E 195 487 102.000000
E 196 513 98.000000
E 197 521 97.000000
E 197 585 100.000000
E 198 285 98.000000
E 198 325 104.000000
E 198 365 95.000000
E 199 229 105.000000
E 199 386 87.000000
E 200 341 104.000000
E 201 301 98.000000
E 201 339 101.000000
E 201 360 92.000000
E 201 510 101.000000
E 202 253 96.000000
E 202 344 95.000000
E 203 607 94.000000
E 204 306 94.000000
E 204 318 104.000000
E 204 322 99.000000
E 205 427 96.000000
E 205 507 90.000000
E 206 373 106.000000
E 206 463 99.000000
E 207 300 101.000000
E 207 319 97.000000
E 208 260 101.000000
E 208 305 96.000000
E 208 419 93.000000
E 208 477 95.000000
E 208 629 95.000000
E 209 262 95.000000
E 210 527 101.000000
E 210 580 98.000000
E 211 452 95.000000
E 212 335 100.000000
E 212 413 94.000000
E 212 434 102.000000
E 212 438 99.000000
E 212 525 104.000000
E 212 559 95.000000
E 213 305 97.000000
E 214 431 96.000000
E 214 435 96.000000
E 215 582 102.000000
E 216 298 101.000000
E 216 439 94.000000
E 217 380 93.000000
E 217 408 99.000000
E 217 617 106.000000
E 218 418 102.000000
E 218 594 110.000000
E 219 228 104.000000
E 220 541 84.000000
E 222 551 100.000000
E 223 243 99.000000
E 223 443 104.000000
E 224 365 99.000000
E 224 400 95.000000
E 225 323 94.000000
E 225 626 99.000000
E 226 484 101.000000
E 226 534 96.000000
E 227 328 102.000000
E 227 506 102.000000
E 227 538 94.000000
E 228 512 93.000000
E 228 628 111.000000
E 230 391 105.000000
E 230 426 99.000000
E 230 470 96.000000
E 230 588 99.000000
E 230 617 98.000000
E 231 370 104.000000
E 231 395 92.000000
E 231 439 91.000000
E 231 475 100.000000
E 231 575 100.000000
E 232 312 109.000000
E 232 336 93.000000
E 232 461 96.000000
E 232 569 102.000000
E 233 405 94.000000
E 234 547 95.000000
E 235 608 106.000000
E 237 562 102.000000
E 238 287 91.000000
E 238 436 99.000000
E 239 392 105.000000
E 240 267 100.000000
E 241 573 96.000000
E 242 323 101.000000
E 242 458 101.000000
E 242 551 100.000000
E 242 596 102.000000
E 243 523 105.000000
E 244 573 96.000000
E 246 248 105.000000
E 246 528 100.000000
E 248 372 95.000000
E 248 489 93.000000
E 249 286 98.000000
E 249 328 97.000000
E 250 255 103.000000
E 250 545 94.000000
E 251 314 108.000000
E 251 438 96.000000
E 251 517 93.000000
E 253 464 98.000000
E 253 472 99.000000
E 254 376 97.000000
E 254 482 95.000000
E 255 338 104.000000
E 256 633 104.000000
E 257 526 102.000000
E 258 266 106.000000
E 259 550 96.000000
E 260 381 87.000000
E 260 496 99.000000
E 261 262 95.000000
E 261 358 103.000000
E 262 380 98.000000
E 262 414 100.000000
E 262 490 100.000000
E 263 373 109.000000
E 264 433 98.000000
E 264 446 100.000000
E 265 588 96.000000
E 266 578 102.000000
E 267 353 103.000000
E 267 477 95.000000
E 267 549 94.000000
E 267 554 102.000000
E 267 600 101.000000
E 269 364 101.000000
E 270 273 98.000000
E 270 463 101.000000
E 270 523 99.000000
E 270 553 101.000000
E 271 570 96.000000
E 271 583 92.000000
E 271 589 93.000000
E 272 350 95.000000
E 272 397 97.000000
E 272 537 99.000000
E 273 334 100.000000
E 274 549 92.000000
E 274 621 93.000000
E 275 355 102.000000
E 278 374 98.000000
E 278 395 94.000000
E 280 346 102.000000
E 280 604 103.000000
E 281 330 106.000000
E 281 488 94.000000
E 283 325 97.000000
E 284 491 96.000000
E 284 621 102.000000
E 286 546 101.000000
E 286 590 103.000000
E 286 621 99.000000
E 287 360 97.000000
E 290 572 95.000000
E 291 457 98.000000
E 291 524 101.000000
E 292 346 107.000000
E 293 355 112.000000
E 293 468 103.000000
E 293 564 101.000000
E 294 384 103.000000
E 294 420 101.000000
E 294 461 108.000000
E 294 463 106.000000
E 294 611 107.000000
E 295 472 98.000000
E 296 321 103.000000
E 297 363 92.000000
E 297 548 106.000000
E 297 599 104.000000
E 298 400 94.000000
E 299 612 95.000000
E 300 335 95.000000
E 300 343 96.000000
E 302 312 101.000000
E 302 462 102.000000
E 302 542 101.000000
E 303 445 99.000000
E 303 534 95.000000
E 304 465 96.000000
E 304 615 98.000000
E 305 315 101.000000
E 305 411 95.000000
E 305 457 96.000000
E 305 480 103.000000
E 305 568 93.000000
E 307 345 97.000000
E 307 449 104.000000
E 308 525 103.000000
E 308 586 98.000000
E 310 399 103.000000
E 310 605 111.000000
E 312 330 90.000000
E 312 383 106.000000
E 312 538 101.000000
E 312 640 96.000000
E 313 380 92.000000
E 314 406 101.000000
E 314 442 90.000000
E 314 621 105.000000
E 316 470 102.000000
E 318 557 99.000000
E 319 467 102.000000
E 319 469 103.000000
E 320 596 101.000000
E 321 377 108.000000
E 321 404 91.000000
E 324 439 95.000000
E 325 553 92.000000
E 326 445 92.000000
E 327 463 102.000000
E 328 510 105.000000
E 330 592 107.000000
E 330 621 101.000000
E 332 547 111.000000
E 333 411 93.000000
E 337 497 100.000000
E 337 557 105.000000
E 337 567 101.000000
E 339 385 107.000000
E 339 390 99.000000
E 339 538 106.000000
E 340 377 104.000000
E 340 604 97.000000
E 343 518 101.000000
E 343 526 101.000000
E 344 483 101.000000
E 344 512 107.000000
E 345 534 98.000000
E 345 635 93.000000
E 345 638 104.000000
E 346 465 106.000000
E 346 569 94.000000
E 347 352 102.000000
E 348 522 99.000000
E 348 633 108.000000
E 349 520 104.000000
E 350 413 92.000000
E 350 521 96.000000
E 350 526 99.000000
E 351 613 99.000000
E 352 640 100.000000
E 353 486 101.000000
E 354 498 107.000000
E 354 503 107.000000
E 355 470 101.000000
E 355 548 97.000000
E 355 569 105.000000
E 356 405 104.000000
E 356 515 100.000000
E 357 463 95.000000
E 357 464 99.000000
E 358 495 101.000000
E 359 473 109.000000
E 359 550 98.000000
E 360 384 103.000000
E 360 439 98.000000
E 360 524 102.000000
E 360 550 101.000000
E 361 593 106.000000
E 362 595 98.000000
E 363 500 90.000000
E 363 582 103.000000
E 364 491 96.000000
E 366 600 96.000000
E 367 487 96.000000
E 367 550 103.000000
E 367 627 99.000000
E 368 404 101.000000
E 368 412 93.000000
E 371 626 96.000000
E 372 476 91.000000
E 372 515 106.000000
E 372 524 96.000000
E 372 550 106.000000
E 373 562 97.000000
E 374 380 88.000000
E 375 459 100.000000
E 375 597 92.000000
E 376 426 95.000000
E 378 468 96.000000
E 380 412 101.000000
E 380 415 94.000000
E 380 610 108.000000
E 383 390 101.000000
E 383 401 99.000000
E 383 558 100.000000
E 384 520 96.000000
E 385 633 105.000000
E 386 450 100.000000
E 386 636 99.000000
E 387 456 104.000000
E 389 515 94.000000
E 392 603 101.000000
E 393 520 94.000000
E 396 431 102.000000
E 396 529 98.000000
E 396 625 94.000000
E 400 441 100.000000
E 402 570 93.000000
E 402 571 98.000000
E 403 440 97.000000
E 403 449 101.000000
E 405 535 106.000000
E 407 496 94.000000
E 407 522 96.000000
E 408 632 100.000000
E 410 562 104.000000
E 411 567 99.000000
E 412 434 101.000000
E 412 572 102.000000
E 412 631 95.000000
E 413 543 104.000000
E 414 523 91.000000
E 415 465 97.000000
E 416 490 105.000000
E 416 504 110.000000
E 416 545 106.000000
E 417 493 102.000000
E 418 429 96.000000
E 418 533 102.000000
E 421 598 106.000000
E 423 437 89.000000
E 424 625 102.000000
E 425 527 91.000000
E 426 557 94.000000
E 427 598 93.000000
E 428 471 94.000000
E 429 448 98.000000
E 431 576 109.000000
E 432 462 96.000000
E 432 614 101.000000
E 432 629 92.000000
E 433 496 101.000000
E 433 640 95.000000
E 435 455 99.000000
E 435 517 86.000000
E 435 602 91.000000
E 436 445 95.000000
E 437 490 102.000000
E 437 502 107.000000
E 442 517 92.000000
E 444 541 95.000000
E 445 561 97.000000
E 445 572 97.000000
E 448 605 99.000000
E 451 524 100.000000
E 451 577 102.000000
E 451 636 104.000000
E 452 552 103.000000
E 453 580 106.000000
E 454 480 87.000000
E 455 495 100.000000
E 455 513 93.000000
E 457 470 103.000000
E 457 526 97.000000
E 459 503 106.000000
E 460 501 108.000000
E 460 505 100.000000
E 460 540 100.000000
E 462 629 97.000000
E 463 504 97.000000
E 464 577 95.000000
E 465 500 98.000000
E 469 566 101.000000
E 469 592 94.000000
E 470 626 99.000000
E 470 630 100.000000
E 470 637 98.000000
E 473 482 96.000000
E 473 571 102.000000
E 477 531 97.000000
E 477 535 106.000000
E 478 492 101.000000
E 478 516 97.000000
E 478 518 100.000000
E 479 558 100.000000
E 480 576 105.000000
E 482 552 102.000000
E 482 575 103.000000
E 483 538 101.000000
E 483 622 102.000000
E 483 633 93.000000
E 493 609 91.000000
E 494 596 105.000000
E 495 561 96.000000
E 496 556 108.000000
E 496 590 102.000000
E 497 569 101.000000
E 498 574 104.000000
E 506 605 114.000000
E 507 613 95.000000
E 511 538 101.000000
E 511 630 91.000000
E 515 553 93.000000
E 516 518 105.000000
E 516 563 97.000000
E 520 522 95.000000
E 520 596 93.000000
E 520 628 99.000000
E 523 549 97.000000
E 529 573 107.000000
E 533 534 96.000000
E 537 543 100.000000
E 544 565 97.000000
E 544 604 100.000000
E 545 585 101.000000
E 551 565 101.000000
E 555 585 96.000000
E 558 601 99.000000
E 559 588 97.000000
E 560 610 103.000000
E 563 622 97.000000
E 563 630 113.000000
E 566 593 101.000000
E 574 607 95.000000
E 574 621 99.000000
E 575 639 100.000000
E 577 597 100.000000
E 577 616 105.000000
E 578 636 101.000000
E 582 614 102.000000
E 583 585 102.000000
E 584 621 96.000000
E 594 599 98.000000
E 596 601 101.000000
E 596 622 103.000000
E 598 603 93.000000
E 599 618 102.000000
E 614 634 99.000000
E 625 630 112.000000
END

SECTION Terminals
Terminals 50
TP 1 792.000000
TP 2 32.000000
TP 3 172.000000
TP 4 920.000000
TP 5 1224.000000
TP 6 1228.000000
TP 7 620.000000
TP 8 196.000000
TP 9 772.000000
TP 10 752.000000
TP 11 96.000000
TP 12 608.000000
TP 13 324.000000
TP 14 296.000000
TP 15 328.000000
TP 16 748.000000
TP 17 560.000000
TP 18 724.000000
TP 19 840.000000
TP 20 48.000000
TP 21 484.000000
TP 22 684.000000
TP 23 280.000000
TP 24 1052.000000
TP 25 408.000000
TP 26 48.000000
TP 27 408.000000
TP 28 108.000000
TP 29 464.000000
TP 30 228.000000
TP 31 552.000000
TP 32 284.000000
TP 33 256.000000
TP 34 904.000000
TP 35 952.000000
TP 36 320.000000
TP 37 500.000000
TP 38 712.000000
TP 39 460.000000
TP 40 1144.000000
TP 41 908.000000
TP 42 760.000000
TP 43 180.000000
TP 44 408.000000
TP 45 784.000000
TP 46 520.000000
TP 47 364.000000
TP 48 1176.000000
TP 49 164.000000
TP 50 1120.000000
END

EOF
